Mack/Bortfeldt(2008)
Bin-Packing-Problem
BP-RG/SBSBPP/SSSCSP
Testcase-ID	3
Problem-ID	40
no_item_types	10
no_items	1477
CONTAINER_DATA (l,w,h)	485	131	118
ITEMS_DATA:
Type	x	y	z	no_items
1	102	96	59	138
2	95	76	60	148
3	109	63	28	152
4	80	52	42	131
5	74	64	35	175
6	68	66	31	149
7	120	34	26	151
8	61	47	34	137
9	53	45	36	146
10	53	40	36	150
